c User generated cnf file
p cnf 15 32
8 6 -7 0 
9 -13 2 0 
9 12 -15 0 
8 -6 13 0 
15 11 -14 0 
11 1 -1 0 
2 -2 10 0 
4 -5 13 0 
14 10 -2 0 
9 12 -7 0 
11 5 -6 0 
8 -14 13 0 
8 15 -9 0 
7 5 -3 0 
11 -1 4 0 
8 3 -3 0 
15 12 -12 0 
5 -6 15 0 
15 -9 6 0 
6 11 -1 0 
12 -13 6 0 
11 4 -4 0 
11 -14 6 0 
3 -3 4 0 
11 -10 3 0 
14 4 -6 0 
1 15 -12 0 
1 -10 8 0 
15 12 -5 0 
15 6 -9 0 
2 5 -10 0 
6 -6 9 0 
